63
125
87	1
86	4
85	3
84	7
83	7
82	7
81	8
80	4
79	6
78	4
77	5
76	3
75	4
74	4
73	10
72	6
71	4
70	3
69	5
68	5
67	2
66	2
65	1
64	1
63	6
62	3
61	8
60	3
59	4
58	2
57	5
56	6
55	4
54	5
53	3
52	5
51	8
50	4
49	3
48	9
47	6
46	5
45	5
44	3
43	5
42	5
41	6
40	7
39	4
38	8
37	6
36	5
35	7
34	7
33	8
32	5
31	2
30	1
29	2
28	6
27	4
26	5
25	4
